Ce  O                                   
   1.00000000000000     
    11.5132503509999999    0.0000000000000000    0.0000000000000000
    -5.7566251755000000    9.9707672841000008    0.0000000000000000
     0.0000000000000000    0.0000000000000000   23.8244590758999983
   Ce   O 
    18    36
Selective dynamics
Direct
  0.1111110861351392  0.2222221100810700  0.0349707506619836   F   F   F
  0.1111110734943850  0.5555554665119260  0.0349707506619836   F   F   F
  0.1111110441083838  0.8888887272630797  0.0349707506619836   F   F   F
  0.4444444159942194  0.2222221100810700  0.0349707506619836   F   F   F
  0.4444443930175410  0.5555554665119260  0.0349707506619836   F   F   F
  0.4444443636315398  0.8888887272630797  0.0349707506619836   F   F   F
  0.7777777769479002  0.2222221100810700  0.0349707506619836   F   F   F
  0.7777777332125311  0.5555554665119260  0.0349707506619836   F   F   F
  0.7777777245852207  0.8888887272630797  0.0349707506619836   F   F   F
  0.2222222784630361  0.1111109474760923  0.1679830434700034   T   T   T
  0.2222222789644022  0.4444442680019876  0.1679830434700034   T   T   T
  0.2222222734983248  0.7777775765929960  0.1679830434700034   T   T   T
  0.5555556394167169  0.1111109474760923  0.1679830434700034   T   T   T
  0.5555556399180830  0.4444442680019876  0.1679830434700034   T   T   T
  0.5555556344520056  0.7777775765929960  0.1679830434700034   T   T   T
  0.8888890003703978  0.1111109474760923  0.1679830434700034   T   T   T
  0.8888889386825554  0.4444442680019876  0.1679830434700034   T   T   T
  0.8888889539751688  0.7777775765929960  0.1679830434700034   T   T   T
  0.0000000000000000  0.0000000000000000  0.0002113346197703   F   F   F
  0.9999999961830426  0.3333333325610752  0.0002113346197703   F   F   F
  0.9999999923159351  0.6666666650218573  0.0002113346197703   F   F   F
  0.3333333401949901  0.0000000000000000  0.0002113346197703   F   F   F
  0.3333333363780326  0.3333333325610752  0.0002113346197703   F   F   F
  0.3333333325109322  0.6666666650218573  0.0002113346197703   F   F   F
  0.6666666804768440  0.0000000000000000  0.0002113346197703   F   F   F
  0.6666666662371128  0.3333333325610752  0.0002113346197703   F   F   F
  0.6666666727059223  0.6666666650218573  0.0002113346197703   F   F   F
  0.2222225615019369  0.1111107681518817  0.0700043367484966   F   F   F
  0.2222225799056332  0.4444441244824446  0.0700043367484966   F   F   F
  0.2222225744897059  0.7777774331737390  0.0700043367484966   F   F   F
  0.5555559224556177  0.1111107681518817  0.0700043367484966   F   F   F
  0.5555559408593211  0.4444441244824446  0.0700043367484966   F   F   F
  0.5555559354433868  0.7777774331737390  0.0700043367484966   F   F   F
  0.8888893248398233  0.1111107681518817  0.0700043367484966   F   F   F
  0.8888892811411679  0.4444441244824446  0.0700043367484966   F   F   F
  0.8888892963970676  0.7777774331737390  0.0700043367484966   F   F   F
  0.1111108250435677  0.2222225405394198  0.1332815035002604   T   T   T
  0.1111108092415733  0.5555558491304211  0.1332815035002604   T   T   T
  0.1111108276954198  0.8888892055612772  0.1332815035002604   T   T   T
  0.4444441342308139  0.2222225405394198  0.1332815035002604   T   T   T
  0.4444441287647365  0.5555558491304211  0.1332815035002604   T   T   T
  0.4444441472185829  0.8888892055612772  0.1332815035002604   T   T   T
  0.7777774951844947  0.2222225405394198  0.1332815035002604   T   T   T
  0.7777775103902513  0.5555558491304211  0.1332815035002604   T   T   T
  0.7777775081722638  0.8888892055612772  0.1332815035002604   T   T   T
  0.0000000000000000  0.0000000000000000  0.2015032706096896   T   T   T
  0.9999999961830426  0.3333333325610752  0.2015032706096896   T   T   T
  0.9999999923159351  0.6666666650218573  0.2015032706096896   T   T   T
  0.3333333401949901  0.0000000000000000  0.2015032706096896   T   T   T
  0.3333333363780326  0.3333333325610752  0.2015032706096896   T   T   T
  0.3333333325109322  0.6666666650218573  0.2015032706096896   T   T   T
  0.6666666804768440  0.0000000000000000  0.2015032706096896   T   T   T
  0.6666666662371128  0.3333333325610752  0.2015032706096896   T   T   T
  0.6666666727059223  0.6666666650218573  0.2015032706096896   T   T   T
 
  0.00000000E+00  0.00000000E+00  0.00000000E+00
  0.00000000E+00  0.00000000E+00  0.00000000E+00
  0.00000000E+00  0.00000000E+00  0.00000000E+00
  0.00000000E+00  0.00000000E+00  0.00000000E+00
  0.00000000E+00  0.00000000E+00  0.00000000E+00
  0.00000000E+00  0.00000000E+00  0.00000000E+00
  0.00000000E+00  0.00000000E+00  0.00000000E+00
  0.00000000E+00  0.00000000E+00  0.00000000E+00
  0.00000000E+00  0.00000000E+00  0.00000000E+00
  0.00000000E+00  0.00000000E+00  0.00000000E+00
  0.00000000E+00  0.00000000E+00  0.00000000E+00
  0.00000000E+00  0.00000000E+00  0.00000000E+00
  0.00000000E+00  0.00000000E+00  0.00000000E+00
  0.00000000E+00  0.00000000E+00  0.00000000E+00
  0.00000000E+00  0.00000000E+00  0.00000000E+00
  0.00000000E+00  0.00000000E+00  0.00000000E+00
  0.00000000E+00  0.00000000E+00  0.00000000E+00
  0.00000000E+00  0.00000000E+00  0.00000000E+00
  0.00000000E+00  0.00000000E+00  0.00000000E+00
  0.00000000E+00  0.00000000E+00  0.00000000E+00
  0.00000000E+00  0.00000000E+00  0.00000000E+00
  0.00000000E+00  0.00000000E+00  0.00000000E+00
  0.00000000E+00  0.00000000E+00  0.00000000E+00
  0.00000000E+00  0.00000000E+00  0.00000000E+00
  0.00000000E+00  0.00000000E+00  0.00000000E+00
  0.00000000E+00  0.00000000E+00  0.00000000E+00
  0.00000000E+00  0.00000000E+00  0.00000000E+00
  0.00000000E+00  0.00000000E+00  0.00000000E+00
  0.00000000E+00  0.00000000E+00  0.00000000E+00
  0.00000000E+00  0.00000000E+00  0.00000000E+00
  0.00000000E+00  0.00000000E+00  0.00000000E+00
  0.00000000E+00  0.00000000E+00  0.00000000E+00
  0.00000000E+00  0.00000000E+00  0.00000000E+00
  0.00000000E+00  0.00000000E+00  0.00000000E+00
  0.00000000E+00  0.00000000E+00  0.00000000E+00
  0.00000000E+00  0.00000000E+00  0.00000000E+00
  0.00000000E+00  0.00000000E+00  0.00000000E+00
  0.00000000E+00  0.00000000E+00  0.00000000E+00
  0.00000000E+00  0.00000000E+00  0.00000000E+00
  0.00000000E+00  0.00000000E+00  0.00000000E+00
  0.00000000E+00  0.00000000E+00  0.00000000E+00
  0.00000000E+00  0.00000000E+00  0.00000000E+00
  0.00000000E+00  0.00000000E+00  0.00000000E+00
  0.00000000E+00  0.00000000E+00  0.00000000E+00
  0.00000000E+00  0.00000000E+00  0.00000000E+00
  0.00000000E+00  0.00000000E+00  0.00000000E+00
  0.00000000E+00  0.00000000E+00  0.00000000E+00
  0.00000000E+00  0.00000000E+00  0.00000000E+00
  0.00000000E+00  0.00000000E+00  0.00000000E+00
  0.00000000E+00  0.00000000E+00  0.00000000E+00
  0.00000000E+00  0.00000000E+00  0.00000000E+00
  0.00000000E+00  0.00000000E+00  0.00000000E+00
  0.00000000E+00  0.00000000E+00  0.00000000E+00
  0.00000000E+00  0.00000000E+00  0.00000000E+00
